Using license file /home/benedond/gurobi.lic
Using gurobi.env file
Set parameter Threads to value 1
Academic license - for non-commercial use only
Changed value of parameter TimeLimit to 300.0
   Prev: inf  Min: 0.0  Max: inf  Default: inf
Gurobi Optimizer version 9.0.1 build v9.0.1rc0 (linux64)
Optimize a model with 8325 rows, 4140 columns and 32578 nonzeros
Model fingerprint: 0x99ce4326
Variable types: 45 continuous, 4095 integer (4050 binary)
Coefficient statistics:
  Matrix range     [2e-01, 8e+03]
  Objective range  [5e-04, 1e-01]
  Bounds range     [1e+00, 1e+00]
  RHS range        [1e+00, 8e+03]

---------------------------------------------------------------------------
Multi-objectives: starting optimization with 1 objectives ... 
---------------------------------------------------------------------------
---------------------------------------------------------------------------

Multi-objectives: optimize objective 1 (min avg power cons) ...
---------------------------------------------------------------------------

Optimize a model with 8325 rows, 4140 columns and 32578 nonzeros
Variable types: 45 continuous, 4095 integer (4050 binary)
Coefficient statistics:
  Matrix range     [2e-01, 8e+03]
  Objective range  [5e-04, 1e-01]
  Bounds range     [1e+00, 1e+00]
  RHS range        [1e+00, 8e+03]
Presolve removed 3626 rows and 1813 columns
Presolve time: 0.54s
Presolved: 4699 rows, 2327 columns, 18074 nonzeros
Variable types: 45 continuous, 2282 integer (2237 binary)

Root relaxation: objective 1.390850e+00, 836 iterations, 0.05 seconds

    Nodes    |    Current Node    |     Objective Bounds      |     Work
 Expl Unexpl |  Obj  Depth IntInf | Incumbent    BestBd   Gap | It/Node Time

     0     0    1.39085    0  130          -    1.39085      -     -    1s
H    0     0                       4.4228309    1.39085  68.6%     -    1s
H    0     0                       4.3455314    1.39085  68.0%     -    1s
     0     0    1.39085    0  106    4.34553    1.39085  68.0%     -    2s
     0     0    1.39085    0  110    4.34553    1.39085  68.0%     -    2s
H    0     0                       3.8715024    1.39085  64.1%     -    2s
H    0     0                       3.5748599    1.39085  61.1%     -    2s
     0     0    1.44911    0  149    3.57486    1.44911  59.5%     -    2s
     0     0    1.45449    0  164    3.57486    1.45449  59.3%     -    3s
     0     0    1.54851    0  141    3.57486    1.54851  56.7%     -    3s
     0     0    1.54857    0  128    3.57486    1.54857  56.7%     -    3s
     0     0    1.58537    0  122    3.57486    1.58537  55.7%     -    3s
     0     0    1.58537    0  130    3.57486    1.58537  55.7%     -    3s
     0     0    1.63134    0  187    3.57486    1.63134  54.4%     -    3s
     0     0    1.63213    0  156    3.57486    1.63213  54.3%     -    3s
     0     0    1.66041    0  157    3.57486    1.66041  53.6%     -    3s
     0     0    1.67153    0  156    3.57486    1.67153  53.2%     -    3s
     0     0    1.69469    0  210    3.57486    1.69469  52.6%     -    3s
     0     0    1.69967    0  208    3.57486    1.69967  52.5%     -    3s
     0     0    1.70912    0  177    3.57486    1.70912  52.2%     -    3s
H    0     0                       3.3441111    1.70912  48.9%     -    4s
     0     0    1.70984    0  186    3.34411    1.70984  48.9%     -    4s
     0     0    1.73316    0  228    3.34411    1.73316  48.2%     -    4s
     0     0    1.74299    0  250    3.34411    1.74299  47.9%     -    4s
     0     0    1.75599    0  234    3.34411    1.75599  47.5%     -    4s
     0     0    1.75696    0  254    3.34411    1.75696  47.5%     -    4s
     0     0    1.75746    0  244    3.34411    1.75746  47.4%     -    4s
     0     0    1.75827    0  264    3.34411    1.75827  47.4%     -    4s
     0     0    1.75854    0  270    3.34411    1.75854  47.4%     -    4s
     0     0    1.75873    0  262    3.34411    1.75873  47.4%     -    4s
     0     0    1.75876    0  287    3.34411    1.75876  47.4%     -    4s
     0     0    1.76454    0  303    3.34411    1.76454  47.2%     -    5s
     0     0    1.76924    0  298    3.34411    1.76924  47.1%     -    5s
     0     0    1.77014    0  319    3.34411    1.77014  47.1%     -    5s
     0     0    1.77049    0  301    3.34411    1.77049  47.1%     -    5s
     0     0    1.77069    0  299    3.34411    1.77069  47.1%     -    5s
     0     0    1.77077    0  305    3.34411    1.77077  47.0%     -    5s
     0     0    1.77843    0  290    3.34411    1.77843  46.8%     -    5s
     0     0    1.78117    0  310    3.34411    1.78117  46.7%     -    5s
     0     0    1.78220    0  305    3.34411    1.78220  46.7%     -    5s
     0     0    1.78246    0  314    3.34411    1.78246  46.7%     -    5s
     0     0    1.78264    0  311    3.34411    1.78264  46.7%     -    5s
     0     0    1.78269    0  325    3.34411    1.78269  46.7%     -    5s
     0     0    1.78732    0  256    3.34411    1.78732  46.6%     -    5s
     0     0    1.78946    0  265    3.34411    1.78946  46.5%     -    5s
     0     0    1.79027    0  275    3.34411    1.79027  46.5%     -    5s
     0     0    1.79055    0  274    3.34411    1.79055  46.5%     -    5s
     0     0    1.79062    0  280    3.34411    1.79062  46.5%     -    5s
     0     0    1.79371    0  285    3.34411    1.79371  46.4%     -    5s
     0     0    1.79457    0  275    3.34411    1.79457  46.3%     -    5s
     0     0    1.79482    0  274    3.34411    1.79482  46.3%     -    5s
     0     0    1.79492    0  313    3.34411    1.79492  46.3%     -    5s
     0     0    1.79764    0  263    3.34411    1.79764  46.2%     -    6s
     0     0    1.79882    0  284    3.34411    1.79882  46.2%     -    6s
     0     0    1.79895    0  270    3.34411    1.79895  46.2%     -    6s
     0     0    1.80033    0  280    3.34411    1.80033  46.2%     -    6s
     0     0    1.80135    0  288    3.34411    1.80135  46.1%     -    6s
     0     0    1.80201    0  282    3.34411    1.80201  46.1%     -    6s
     0     0    1.80234    0  329    3.34411    1.80234  46.1%     -    6s
     0     0    1.80241    0  299    3.34411    1.80241  46.1%     -    6s
     0     0    1.80368    0  332    3.34411    1.80368  46.1%     -    6s
     0     0    1.80453    0  357    3.34411    1.80453  46.0%     -    6s
     0     0    1.80477    0  354    3.34411    1.80477  46.0%     -    6s
     0     0    1.80487    0  340    3.34411    1.80487  46.0%     -    6s
     0     0    1.80558    0  304    3.34411    1.80558  46.0%     -    6s
     0     0    1.80609    0  332    3.34411    1.80609  46.0%     -    6s
     0     0    1.80624    0  340    3.34411    1.80624  46.0%     -    6s
     0     0    1.80726    0  288    3.34411    1.80726  46.0%     -    7s
     0     0    1.80726    0  286    3.34411    1.80726  46.0%     -    7s
     0     2    1.80726    0  284    3.34411    1.80726  46.0%     -    7s
H   27    27                       3.2036328    1.80726  43.6%   333    8s
    52    54    2.04218   34  199    3.20363    1.80726  43.6%   394   10s
H   54    54                       3.1708309    1.80726  43.0%   383   10s
H  135   122                       3.1545073    1.80726  42.7%   246   11s
H  189   172                       3.1538454    1.80726  42.7%   185   12s
H  243   221                       3.1352367    1.80726  42.4%   146   12s
H  297   253                       3.1049179    1.80726  41.8%   128   13s
   330   286    2.12361   31  173    3.10492    1.80726  41.8%   144   15s
H  405   353                       3.0992077    1.80726  41.7%   133   17s
H  486   430                       3.0992077    1.80726  41.7%   113   17s
   511   444    2.11440   61  106    3.09921    1.80726  41.7%   108   20s
   527   455    2.83139  152  286    3.09921    1.82628  41.1%   105   25s
   545   467    2.54150  112  343    3.09921    1.84306  40.5%   101   30s
H  549   444                       3.0921063    1.84539  40.3%   100   31s
   563   454    2.99005  173  304    3.09211    1.84836  40.2%  98.0   35s
   579   464    2.98128  208  307    3.09211    1.85194  40.1%  95.3   40s
   597   476    2.81950  132  342    3.09211    1.85605  40.0%  92.4   45s
   613   487    2.97994  196  332    3.09211    1.85720  39.9%  90.0   50s
H  615   462                       3.0873382    1.85740  39.8%  89.7   50s
   629   472    2.33613  101  298    3.08734    1.85866  39.8%  87.7   55s
   647   484    2.98357  189  318    3.08734    1.85991  39.8%  85.2   60s
   662   494    2.80725   92  363    3.08734    1.86069  39.7%  83.3   65s
   679   505    2.98128  208  308    3.08734    1.86180  39.7%  81.2   70s
   696   517    2.58419   81  220    3.08734    1.86207  39.7%   181   75s
   709   526    2.14707   73  312    3.08734    1.86270  39.7%   178   80s
   725   537    2.10399   56  346    3.08734    1.86392  39.6%   174   85s
   744   550    2.97994  203  267    3.08734    1.86425  39.6%   197   90s
   758   560    2.58139   69  318    3.08734    1.86514  39.6%   194   95s
   773   570    2.09175   38  339    3.08734    1.86561  39.6%   190  100s
   791   583    2.11671   31  208    3.08734    1.86585  39.6%   211  105s
   805   592    2.79813  116  338    3.08734    1.86617  39.6%   208  110s
   819   603    2.83724  154  277    3.08734    1.86626  39.6%   221  115s
   835   614    1.86661    2  327    3.08734    1.86661  39.5%   217  120s
   849   625    2.80725   94  324    3.08734    1.86663  39.5%   231  125s
   866   637    2.84211  166  195    3.08734    1.86682  39.5%   241  130s
   879   646    2.98128  208  310    3.08734    1.86693  39.5%   237  135s
   895   658    1.86702    3  265    3.08734    1.86702  39.5%   248  140s
   914   672    1.95349    3  213    3.08734    1.86741  39.5%   256  145s
   926   680    2.28567   85  340    3.08734    1.86756  39.5%   253  150s
   941   691    2.80994  125  310    3.08734    1.86762  39.5%   263  155s
   955   701    2.14210   18  330    3.08734    1.86980  39.4%   259  160s
   969   710    2.85058  175  327    3.08734    1.87073  39.4%   255  165s
   984   720    2.61576  112  338    3.08734    1.87163  39.4%   252  170s
  1000   732    2.40215   53  235    3.08734    1.87178  39.4%   275  175s
  1013   741    2.97994  196  322    3.08734    1.87214  39.4%   271  180s
  1027   752    2.83139  152  372    3.08734    1.87217  39.4%   281  185s
  1044   764    2.97994  203  208    3.08734    1.87230  39.4%   288  190s
  1057   773    2.83724  156  320    3.08734    1.87235  39.4%   285  195s
H 1059   735                       3.0544444    1.87244  38.7%   284  196s
H 1069   705                       3.0497923    1.87246  38.6%   295  199s
  1071   706    2.05766   25  267    3.04979    1.87246  38.6%   294  200s
  1084   715    2.61576  112  300    3.04979    1.87254  38.6%   290  205s
H 1087   681                       3.0451353    1.87255  38.5%   302  214s
  1087   683    1.87257  147  297    3.04514    1.87255  38.5%   302  215s
  1093   685    2.05867  150  140    3.04514    1.87262  38.5%   311  220s
  1099   689    1.87353  153  243    3.04514    1.87313  38.5%   315  225s
  1116   700    2.03845  161  210    3.04514    1.87789  38.3%   327  230s
  1133   711    1.88430  170  307    3.04514    1.88384  38.1%   337  235s
  1154   721    1.91432  180  162    3.04514    1.89228  37.9%   345  240s
  1194   746    1.93726  200  157    3.04514    1.89228  37.9%   351  245s
  1244   779    2.11811  225  149    3.04514    1.89228  37.9%   357  250s
  1311   822    1.98729  259  139    3.04514    1.89228  37.9%   362  255s
  1592   946    2.06537  173  190    3.04514    1.89244  37.9%   319  260s
  1644   981    2.13699  199  189    3.04514    1.89244  37.9%   329  265s
  1697  1016    2.02277  226  151    3.04514    1.89244  37.9%   336  270s
H 1714   991                       3.0417536    1.89244  37.8%   336  272s
  1794  1044    2.20368  274  122    3.04175    1.89244  37.8%   334  275s
H 1975  1098                       3.0370580    1.89244  37.7%   315  286s
  2029  1113    2.12489  208  162    3.03706    1.91437  37.0%   314  290s
  2133  1180    2.17820  296  138    3.03706    1.91437  37.0%   306  295s

Cutting planes:
  Implied bound: 32
  Projected implied bound: 20
  MIR: 153
  Flow cover: 136
  GUB cover: 61
  RLT: 1
  Relax-and-lift: 116

Explored 2382 nodes (709349 simplex iterations) in 300.00 seconds
Thread count was 1 (of 4 available processors)

Solution count 10: 3.03706 3.04175 3.04514 ... 3.13524

Time limit reached
Best objective 3.037057957924e+00, best bound 1.914547964976e+00, gap 36.9604%

---------------------------------------------------------------------------
Multi-objectives: stopped in 300.02 seconds, solution count 10
Time Limit reached

